5 5
4 25 3 16 0 8 1 35 2 85
1 83 3 46 4 11 2 61 0 44
3 11 0 11 4 22 2 85 1 91
3 82 1 62 2 48 0 94 4 63
3 51 0 45 2 33 4 85 1 60
-1
0 2 3 4 5
0 4 5
0 1 3 5
0 1 2 4 5
0 4 5
-2
41 58 93 263
318 318
11 65 317
100 213 377 371
329 360

384 7
11 21 2 18 9
5 16 14 3 24
13 17 22 8 4
10 15 20 6 1
12 0 7 23 19
